1501.97
0 41 20 53 54 70 60 64 9 31 1 12 28 55 59 8 33 57 14 15 45 26 16 21 29 50 73 49 67 2 61 34 48 24 65 39 71 32 17 36 74 4 66 51 52 68 42 13 62 25 38 63 30 69 6 40 43 11 58 44 37 18 3 10 35 47 56 19 27 5 22 46 23 7 72
